500
1000
494
494
494
494
493
492
492
491
491
490
490
490
490
489
489
487
486
486
486
485
485
484
484
483
482
481
480
479
477
477
476
476
474
474
474
473
473
473
473
473
472
470
470
468
468
468
467
467
467
466
465
462
462
462
461
460
460
460
460
459
459
458
457
457
457
456
456
455
452
452
452
452
451
450
449
449
448
448
446
446
446
445
443
443
443
443
441
441
441
440
440
440
439
438
436
436
435
434
434
433
433
432
431
431
430
429
428
427
427
426
426
424
424
422
422
422
421
421
421
419
418
418
418
417
417
416
415
415
414
414
413
413
413
412
412
412
411
411
410
408
408
407
407
406
406
405
405
404
403
403
403
401
401
400
400
400
400
398
396
396
396
395
395
393
393
393
393
392
391
391
390
390
390
390
390
389
388
387
385
384
384
384
384
383
383
382
382
380
380
379
378
378
377
376
376
376
376
375
373
373
371
371
371
371
370
369
369
369
369
368
367
367
365
365
364
364
364
364
363
363
363
363
363
362
362
362
361
361
359
359
359
358
358
357
357
355
354
353
353
353
353
351
351
351
351
351
350
349
348
348
347
346
345
345
344
344
343
342
342
341
341
340
339
338
337
336
336
336
336
336
335
334
333
333
333
333
332
332
331
330
329
328
328
327
326
326
325
323
321
321
320
319
318
318
317
317
317
317
316
315
315
313
313
312
312
311
310
310
309
309
309
308
308
308
307
307
305
304
303
302
301
301
299
298
297
297
294
293
290
289
289
289
288
287
287
286
286
285
284
284
283
282
281
279
278
278
278
278
277
277
276
276
271
271
270
269
269
266
265
265
265
264
264
263
263
263
263
262
258
257
257
257
254
253
253
252
251
250
250
249
247
247
246
243
243
242
242
241
239
238
238
236
236
235
235
234
234
233
232
229
228
228
228
224
223
223
221
220
219
218
217
216
216
215
215
214
214
212
212
212
210
210
209
208
208
208
206
206
205
204
204
203
203
202
202
202
201
201
201
200
200
199
199
197
197
197
196
196
196
195
195
194
194
194
193
193
193
192
192
190
190
190
190
189
188
188
187
187
186
185
185
183
182
182
181
181
181
180
180
180
179
178
178
177
177
176
175
175
175
174
174
174
173
171
170
170
169
169
169
167
